c Sudoku solution
p cnf 729 0
127 0
195 0
252 0
279 0
315 0
323 0
377 0
439 0
119 0
442 0
454 0
522 0
538 0
545 0
265 0
247 0
569 0
691 0
689 0
672 0
724 0
751 0
461 0
511 0
797 0
749 0
359 0
831 0
221 0
218 0
614 0
884 0
893 0
999 0
829 0
928 0
392 0
132 0
283 0
498 0
917 0
637 0
413 0
573 0
594 0
487 0
475 0
586 0
426 0
625 0
557 0
867 0
812 0
716 0
174 0
296 0
234 0
336 0
971 0
778 0
876 0
855 0
848 0
943 0
762 0
956 0
964 0
785 0
982 0
733 0
935 0
646 0
344 0
141 0
368 0
188 0
381 0
153 0
166 0
658 0
663 0
